52
2 49 75 
2 117 26 
2 71 85 
3 76 50 19 
2 43 5 
2 103 107 
2 89 2 
2 74 27 
2 25 38 
2 59 115 
2 51 22 
2 20 116 
2 120 72 
2 112 88 
4 97 83 55 67 
2 119 90 
2 95 40 
2 34 68 
2 118 32 
2 61 106 
2 108 54 
2 47 36 
2 77 29 
2 62 84 
3 105 28 7 
2 16 10 
2 81 53 
3 80 63 1 
2 45 100 
2 73 60 
2 11 58 
3 37 91 18 
2 79 70 
2 15 94 
3 92 17 24 
2 99 114 
2 64 23 
2 31 82 
2 4 14 
2 6 12 
2 65 111 
4 98 101 44 48 
3 30 110 33 
3 102 35 52 
3 8 13 41 
2 104 56 
2 46 78 
3 93 42 21 
2 86 113 
2 69 96 
4 9 3 109 57 
3 87 66 39 
